
===== New CPLEX run =====
Instance: /home/yorig/tuner/mpils-tests/instances/miplib/easy/lotsize.mps
Config: /scratch/yorig/mpils-results-grid-ticks-10000/easy/16proc/seed-9/4_lotsize_seed-9_20260425_202405/expansion/config_param_CPXPARAM_MIP_Strategy_VariableSelect_-1_iter_1.prm
========================

Selected objective sense:  MINIMIZE
Selected objective  name:  R1921
Selected RHS        name:  B
Selected bound      name:  BOUND
Version identifier: 22.1.2.0 | 2024-11-26 | 0edbb82fd
CPXPARAM_Threads                                 8
CPXPARAM_Parallel                                1
CPXPARAM_MIP_Cuts_Cliques                        -1
CPXPARAM_MIP_Strategy_VariableSelect             -1
CPXPARAM_MIP_Cuts_FlowCovers                     2
CPXPARAM_MIP_Cuts_Implied                        2
CPXPARAM_MIP_Cuts_GUBCovers                      -1
CPXPARAM_MIP_Limits_GomoryCand                   50
CPXPARAM_MIP_Cuts_Gomory                         1
CPXPARAM_MIP_Cuts_PathCut                        -1
CPXPARAM_MIP_Cuts_MIRCut                         2
CPXPARAM_MIP_Cuts_Disjunctive                    -1
CPXPARAM_Emphasis_MIP                            1
CPXPARAM_DetTimeLimit                            10000
Tried aggregator 1 time.
MIP Presolve eliminated 595 rows and 0 columns.
MIP Presolve added 1190 rows and 0 columns.
MIP Presolve modified 10 coefficients.
Reduced MIP has 2515 rows, 2985 columns, and 7755 nonzeros.
Reduced MIP has 1195 binaries, 0 generals, 0 SOSs, and 0 indicators.
Presolve time = 0.00 sec. (4.53 ticks)
Probing fixed 0 vars, tightened 5487 bounds.
Probing time = 0.01 sec. (18.38 ticks)
Tried aggregator 2 times.
Detecting symmetries...
MIP Presolve modified 1206 coefficients.
Aggregator did 10 substitutions.
Reduced MIP has 2505 rows, 2975 columns, and 7735 nonzeros.
Reduced MIP has 1195 binaries, 0 generals, 0 SOSs, and 0 indicators.
Presolve time = 0.00 sec. (6.66 ticks)
Probing fixed 0 vars, tightened 2401 bounds.
Probing time = 0.00 sec. (6.41 ticks)
Clique table members: 190.
MIP emphasis: integer feasibility.
MIP search method: dynamic search.
Parallel mode: deterministic, using up to 8 threads.
Root relaxation solution time = 0.01 sec. (9.71 ticks)

        Nodes                                         Cuts/
   Node  Left     Objective  IInf  Best Integer    Best Bound    ItCnt     Gap

      0     0   348385.3466   472                 348385.3466      882         
      0     0   572313.5958   462                   Cuts: 726     1889         
      0     0   831822.5913   565                   Cuts: 726     2717         
      0     0   945966.5491   640                   Cuts: 726     3332         
*     0+    0                       1.01740e+07   945966.5491            90.70%
*     0+    0                      7973370.0000   945966.5491            88.14%
Detecting symmetries...
      0     2   945966.5491   640  7973370.0000   945966.5491     3332   88.14%
Elapsed time = 0.37 sec. (495.59 ticks, tree = 0.02 MB, solutions = 2)
    455   335   983476.1931   547  7973370.0000   947451.0223     6633   88.12%
   1213  1092   987505.6507   507  7973370.0000   947451.0223    16402   88.12%

Performing restart 1

Repeating presolve.
Tried aggregator 1 time.
MIP Presolve modified 1151 coefficients.
Reduced MIP has 2505 rows, 2975 columns, and 7735 nonzeros.
Reduced MIP has 1195 binaries, 0 generals, 0 SOSs, and 0 indicators.
Presolve time = 0.00 sec. (3.78 ticks)
Tried aggregator 1 time.
MIP Presolve modified 1026 coefficients.
Reduced MIP has 2505 rows, 2975 columns, and 7735 nonzeros.
Reduced MIP has 1195 binaries, 0 generals, 0 SOSs, and 0 indicators.
Presolve time = 0.00 sec. (5.12 ticks)
Represolve time = 0.02 sec. (18.32 ticks)
*  1732+    0                      6644005.0000   947451.0223            85.74%
   1732     0  1085553.1976   621  6644005.0000     Cuts: 726    29260   83.66%
   1732     0  1173646.1553   623  6644005.0000     Cuts: 726    30013   82.34%
   1732     0  1234179.3495   668  6644005.0000     Cuts: 726    30701   81.42%
   1732     2  1234179.3495   668  6644005.0000  1234179.3495    30701   81.42%
   1762    32  1274352.7221   610  6644005.0000  1234186.8727    31235   81.42%
   1782    52  1286246.7848   565  6644005.0000  1234186.8727    31707   81.42%
   1804    73  1294537.7793   741  6644005.0000  1234186.8727    33172   81.42%
   1815    79  1366691.4909   751  6644005.0000  1234186.8727    35945   81.42%
   1822    84  1307404.2208   745  6644005.0000  1234255.9365    37556   81.42%
   1842    88  1301106.8905   771  6644005.0000  1266779.0875    43812   80.93%
   2128   295  1365781.6953   705  6644005.0000  1266779.0875    76293   80.93%
Elapsed time = 4.03 sec. (5400.42 ticks, tree = 0.52 MB, solutions = 3)
   2587   777  1548315.0802   317  6644005.0000  1266779.0875   109357   80.93%
   3506  1395  1740828.8731    24  6644005.0000  1266779.0875   140624   80.93%
*  3645+ 1730                      1801746.0000  1266779.0875            29.69%
*  3647  1754      integral     0  1764833.0000  1266779.0875   159728   28.22%
   4742  2651  1564354.6889   293  1764833.0000  1266779.0875   201998   28.22%
*  5772+ 3534                      1659813.0000  1266779.0875            23.68%
*  5798+ 3534                      1658660.0000  1266779.0875            23.63%
*  5807+ 3534                      1658543.0000  1266779.0875            23.62%
   6065  3155  1561838.3500    86  1658543.0000  1266779.0875   259963   23.62%
*  6377  3316      integral     0  1631176.0000  1266779.0875   270808   22.34%
*  6473+ 3245                      1562845.0000  1266779.0875            18.94%
*  6481+ 3245                      1557962.0000  1266779.0875            18.69%
*  6488+ 3245                      1557426.0000  1266779.0875            18.66%
*  6495+ 3245                      1549714.0000  1266779.0875            18.26%
*  6503+ 3245                      1547602.0000  1266779.0875            18.15%

Cover cuts applied:  24
Implied bound cuts applied:  15
Flow cuts applied:  795
Mixed integer rounding cuts applied:  1051
Multi commodity flow cuts applied:  31
Lift and project cuts applied:  13
Gomory fractional cuts applied:  5

Root node processing (before b&c):
  Real time             =    0.36 sec. (493.50 ticks)
Parallel b&c, 8 threads:
  Real time             =    8.65 sec. (9509.74 ticks)
  Sync time (average)   =    1.77 sec.
  Wait time (average)   =    0.00 sec.
                          ------------
Total (root+branch&cut) =    9.01 sec. (10003.24 ticks)
Gap: 18.15%
Upper bound: 1.5476e+06
Lower bound: 1.26678e+06
End of CPLEX run. Time: 9.01083 seconds

===== New CPLEX run =====
Instance: /home/yorig/tuner/mpils-tests/instances/miplib/easy/lotsize.mps
Config: /scratch/yorig/mpils-results-grid-ticks-10000/easy/16proc/seed-9/4_lotsize_seed-9_20260425_202405/expansion/config_param_CPXPARAM_MIP_Strategy_VariableSelect_1_iter_1.prm
========================

Selected objective sense:  MINIMIZE
Selected objective  name:  R1921
Selected RHS        name:  B
Selected bound      name:  BOUND
Version identifier: 22.1.2.0 | 2024-11-26 | 0edbb82fd
CPXPARAM_Threads                                 8
CPXPARAM_Parallel                                1
CPXPARAM_MIP_Cuts_Cliques                        -1
CPXPARAM_MIP_Strategy_VariableSelect             1
CPXPARAM_MIP_Cuts_FlowCovers                     2
CPXPARAM_MIP_Cuts_Implied                        2
CPXPARAM_MIP_Cuts_GUBCovers                      -1
CPXPARAM_MIP_Limits_GomoryCand                   50
CPXPARAM_MIP_Cuts_Gomory                         1
CPXPARAM_MIP_Cuts_PathCut                        -1
CPXPARAM_MIP_Cuts_MIRCut                         2
CPXPARAM_MIP_Cuts_Disjunctive                    -1
CPXPARAM_Emphasis_MIP                            1
CPXPARAM_DetTimeLimit                            10000
Tried aggregator 1 time.
MIP Presolve eliminated 595 rows and 0 columns.
MIP Presolve added 1190 rows and 0 columns.
MIP Presolve modified 10 coefficients.
Reduced MIP has 2515 rows, 2985 columns, and 7755 nonzeros.
Reduced MIP has 1195 binaries, 0 generals, 0 SOSs, and 0 indicators.
Presolve time = 0.00 sec. (4.53 ticks)
Probing fixed 0 vars, tightened 5487 bounds.
Probing time = 0.01 sec. (18.38 ticks)
Tried aggregator 2 times.
Detecting symmetries...
MIP Presolve modified 1206 coefficients.
Aggregator did 10 substitutions.
Reduced MIP has 2505 rows, 2975 columns, and 7735 nonzeros.
Reduced MIP has 1195 binaries, 0 generals, 0 SOSs, and 0 indicators.
Presolve time = 0.00 sec. (6.66 ticks)
Probing fixed 0 vars, tightened 2401 bounds.
Probing time = 0.00 sec. (6.41 ticks)
Clique table members: 190.
MIP emphasis: integer feasibility.
MIP search method: dynamic search.
Parallel mode: deterministic, using up to 8 threads.
Root relaxation solution time = 0.01 sec. (9.71 ticks)

        Nodes                                         Cuts/
   Node  Left     Objective  IInf  Best Integer    Best Bound    ItCnt     Gap

      0     0   348385.3466   472                 348385.3466      882         
      0     0   572313.5958   462                   Cuts: 726     1889         
      0     0   831822.5913   565                   Cuts: 726     2717         
      0     0   945966.5491   640                   Cuts: 726     3332         
*     0+    0                       1.01740e+07   945966.5491            90.70%
*     0+    0                      7973370.0000   945966.5491            88.14%
Detecting symmetries...
      0     2   945966.5491   640  7973370.0000   945966.5491     3332   88.14%
Elapsed time = 0.37 sec. (495.61 ticks, tree = 0.02 MB, solutions = 2)
    497   442   983403.2001   500  7973370.0000   946830.8843     8308   88.13%
   1340  1203  1014061.5477   425  7973370.0000   946830.8843    17491   88.13%

Performing restart 1

Repeating presolve.
Tried aggregator 1 time.
MIP Presolve modified 1151 coefficients.
Reduced MIP has 2505 rows, 2975 columns, and 7735 nonzeros.
Reduced MIP has 1195 binaries, 0 generals, 0 SOSs, and 0 indicators.
Presolve time = 0.00 sec. (3.80 ticks)
Tried aggregator 1 time.
MIP Presolve modified 1028 coefficients.
Reduced MIP has 2505 rows, 2975 columns, and 7735 nonzeros.
Reduced MIP has 1195 binaries, 0 generals, 0 SOSs, and 0 indicators.
Presolve time = 0.00 sec. (5.12 ticks)
Represolve time = 0.02 sec. (18.35 ticks)
*  1728+    0                      6644005.0000   946830.8843            85.75%
   1728     0  1084992.4400   622  6644005.0000     Cuts: 726    30791   83.67%
   1728     0  1171238.9067   629  6644005.0000     Cuts: 726    31610   82.37%
   1728     0  1236499.3508   637  6644005.0000     Cuts: 726    32306   81.39%
   1728     2  1236499.3508   637  6644005.0000  1236499.3508    32306   81.39%
   1756    30  1255833.9633   564  6644005.0000  1236678.8241    33176   81.39%
   1795    69  1279450.2165   508  6644005.0000  1236678.8241    34318   81.39%
   1828     5  1240600.0472   635  6644005.0000  1236678.8241    32394   81.39%
   1837   108  1386603.1439   577  6644005.0000  1237195.0179    37266   81.38%
   1846   119  1393538.3738   547  6644005.0000  1237468.5274    44169   81.37%
   1865   119  1319298.8352   729  6644005.0000  1239524.3176    47211   81.34%
   2306   466  1577396.8385   212  6644005.0000  1240390.3934    80099   81.33%
Elapsed time = 4.02 sec. (5155.28 ticks, tree = 0.75 MB, solutions = 3)
*  2518+  641                      1928983.0000  1240390.3934            35.70%
*  2530+  702                      1818481.0000  1240390.3934            31.79%
*  2662+  756                      1809155.0000  1240390.3934            31.44%
   3155  1234  1440255.2698   468  1809155.0000  1240390.3934   114927   31.44%
   4402  2368  1744000.3047    98  1809155.0000  1240390.3934   172718   31.44%
   5647  3137  1598684.4802   233  1809155.0000  1240390.3934   207754   31.44%
   7405  4669  1676298.5748   102  1809155.0000  1240390.3934   255886   31.44%
   9235  6149  1490431.6841   308  1809155.0000  1240390.3934   300293   31.44%

Cover cuts applied:  26
Implied bound cuts applied:  15
Flow cuts applied:  769
Mixed integer rounding cuts applied:  1030
Multi commodity flow cuts applied:  27
Lift and project cuts applied:  11
Gomory fractional cuts applied:  3

Root node processing (before b&c):
  Real time             =    0.37 sec. (493.36 ticks)
Parallel b&c, 8 threads:
  Real time             =    8.86 sec. (9510.27 ticks)
  Sync time (average)   =    1.78 sec.
  Wait time (average)   =    0.00 sec.
                          ------------
Total (root+branch&cut) =    9.22 sec. (10003.63 ticks)
Gap: 31.44%
Upper bound: 1.80916e+06
Lower bound: 1.24039e+06
End of CPLEX run. Time: 9.22465 seconds

===== New CPLEX run =====
Instance: /home/yorig/tuner/mpils-tests/instances/miplib/easy/lotsize.mps
Config: /scratch/yorig/mpils-results-grid-ticks-10000/easy/16proc/seed-9/4_lotsize_seed-9_20260425_202405/expansion/config_param_CPXPARAM_MIP_Strategy_VariableSelect_2_iter_1.prm
========================

Selected objective sense:  MINIMIZE
Selected objective  name:  R1921
Selected RHS        name:  B
Selected bound      name:  BOUND
Version identifier: 22.1.2.0 | 2024-11-26 | 0edbb82fd
CPXPARAM_Threads                                 8
CPXPARAM_Parallel                                1
CPXPARAM_MIP_Cuts_Cliques                        -1
CPXPARAM_MIP_Strategy_VariableSelect             2
CPXPARAM_MIP_Cuts_FlowCovers                     2
CPXPARAM_MIP_Cuts_Implied                        2
CPXPARAM_MIP_Cuts_GUBCovers                      -1
CPXPARAM_MIP_Limits_GomoryCand                   50
CPXPARAM_MIP_Cuts_Gomory                         1
CPXPARAM_MIP_Cuts_PathCut                        -1
CPXPARAM_MIP_Cuts_MIRCut                         2
CPXPARAM_MIP_Cuts_Disjunctive                    -1
CPXPARAM_Emphasis_MIP                            1
CPXPARAM_DetTimeLimit                            10000
Tried aggregator 1 time.
MIP Presolve eliminated 595 rows and 0 columns.
MIP Presolve added 1190 rows and 0 columns.
MIP Presolve modified 10 coefficients.
Reduced MIP has 2515 rows, 2985 columns, and 7755 nonzeros.
Reduced MIP has 1195 binaries, 0 generals, 0 SOSs, and 0 indicators.
Presolve time = 0.00 sec. (4.53 ticks)
Probing fixed 0 vars, tightened 5487 bounds.
Probing time = 0.01 sec. (18.38 ticks)
Tried aggregator 2 times.
Detecting symmetries...
MIP Presolve modified 1206 coefficients.
Aggregator did 10 substitutions.
Reduced MIP has 2505 rows, 2975 columns, and 7735 nonzeros.
Reduced MIP has 1195 binaries, 0 generals, 0 SOSs, and 0 indicators.
Presolve time = 0.00 sec. (6.66 ticks)
Probing fixed 0 vars, tightened 2401 bounds.
Probing time = 0.00 sec. (6.41 ticks)
Clique table members: 190.
MIP emphasis: integer feasibility.
MIP search method: dynamic search.
Parallel mode: deterministic, using up to 8 threads.
Root relaxation solution time = 0.01 sec. (9.71 ticks)

        Nodes                                         Cuts/
   Node  Left     Objective  IInf  Best Integer    Best Bound    ItCnt     Gap

      0     0   348385.3466   472                 348385.3466      882         
      0     0   572313.5958   462                   Cuts: 726     1889         
      0     0   831822.5913   565                   Cuts: 726     2717         
      0     0   945966.5491   640                   Cuts: 726     3332         
*     0+    0                       1.01740e+07   945966.5491            90.70%
*     0+    0                      7973370.0000   945966.5491            88.14%
Detecting symmetries...
      0     2   945966.5508   647  7973370.0000   945966.5491     3332   88.14%
Elapsed time = 0.61 sec. (868.22 ticks, tree = 0.02 MB, solutions = 2)
      2     3   947179.4409   644  7973370.0000   949144.5226     3340   88.10%
     40    22  1045538.1737   616  7973370.0000   949226.6160     3444   88.10%
     50    52  1037537.6079   699  7973370.0000   949742.8058     4502   88.09%
    118    79  1089060.9912   650  7973370.0000   949742.8058     8973   88.09%
    437   313  1038809.9775   651  7973370.0000   949891.9345    16611   88.09%
    688   563  1213520.2965   601  7973370.0000   949891.9345    21021   88.09%
   1040   792  1358255.9995   431  7973370.0000   949891.9345    25933   88.09%
   1474  1157  1530918.9655   404  7973370.0000   949891.9345    33611   88.09%

Performing restart 1

Repeating presolve.
Tried aggregator 1 time.
MIP Presolve modified 1205 coefficients.
Reduced MIP has 2505 rows, 2975 columns, and 7735 nonzeros.
Reduced MIP has 1195 binaries, 0 generals, 0 SOSs, and 0 indicators.
Presolve time = 0.00 sec. (3.84 ticks)
Tried aggregator 1 time.
MIP Presolve modified 1030 coefficients.
Reduced MIP has 2505 rows, 2975 columns, and 7735 nonzeros.
Reduced MIP has 1195 binaries, 0 generals, 0 SOSs, and 0 indicators.
Presolve time = 0.00 sec. (5.12 ticks)
Represolve time = 0.02 sec. (18.64 ticks)
*  1880+    0                      6644005.0000  1014103.2848            84.74%
   1880     0  1136701.6595   687  6644005.0000     Cuts: 726    51286   82.89%
   1880     0  1215655.0427   687  6644005.0000     Cuts: 726    52124   81.70%
   1880     0  1265784.9677   716  6644005.0000     Cuts: 726    52906   80.95%
   1880     2  1265784.9677   724  6644005.0000  1265784.9677    52906   80.95%
   1915     6  1293426.8522   702  6644005.0000  1273353.9214    53018   80.83%
Elapsed time = 4.90 sec. (6734.66 ticks, tree = 0.02 MB, solutions = 3)
   1925    43  1383254.5407   757  6644005.0000  1273353.9214    58957   80.83%
   2093   145  1360511.9507   708  6644005.0000  1273353.9214    82257   80.83%
   2509   501  1500432.2952   546  6644005.0000  1273353.9214    99731   80.83%

Cover cuts applied:  19
Implied bound cuts applied:  14
Flow cuts applied:  857
Mixed integer rounding cuts applied:  1070
Multi commodity flow cuts applied:  21
Lift and project cuts applied:  5
Gomory fractional cuts applied:  2

Root node processing (before b&c):
  Real time             =    0.61 sec. (865.83 ticks)
Parallel b&c, 8 threads:
  Real time             =    6.45 sec. (9137.09 ticks)
  Sync time (average)   =    0.54 sec.
  Wait time (average)   =    0.00 sec.
                          ------------
Total (root+branch&cut) =    7.06 sec. (10002.91 ticks)
Gap: 80.83%
Upper bound: 6.644e+06
Lower bound: 1.27335e+06
End of CPLEX run. Time: 7.0642 seconds

===== New CPLEX run =====
Instance: /home/yorig/tuner/mpils-tests/instances/miplib/easy/lotsize.mps
Config: /scratch/yorig/mpils-results-grid-ticks-10000/easy/16proc/seed-9/4_lotsize_seed-9_20260425_202405/expansion/config_param_CPXPARAM_MIP_Strategy_VariableSelect_3_iter_1.prm
========================

Selected objective sense:  MINIMIZE
Selected objective  name:  R1921
Selected RHS        name:  B
Selected bound      name:  BOUND
Version identifier: 22.1.2.0 | 2024-11-26 | 0edbb82fd
CPXPARAM_Threads                                 8
CPXPARAM_Parallel                                1
CPXPARAM_MIP_Cuts_Cliques                        -1
CPXPARAM_MIP_Strategy_VariableSelect             3
CPXPARAM_MIP_Cuts_FlowCovers                     2
CPXPARAM_MIP_Cuts_Implied                        2
CPXPARAM_MIP_Cuts_GUBCovers                      -1
CPXPARAM_MIP_Limits_GomoryCand                   50
CPXPARAM_MIP_Cuts_Gomory                         1
CPXPARAM_MIP_Cuts_PathCut                        -1
CPXPARAM_MIP_Cuts_MIRCut                         2
CPXPARAM_MIP_Cuts_Disjunctive                    -1
CPXPARAM_Emphasis_MIP                            1
CPXPARAM_DetTimeLimit                            10000
Tried aggregator 1 time.
MIP Presolve eliminated 595 rows and 0 columns.
MIP Presolve added 1190 rows and 0 columns.
MIP Presolve modified 10 coefficients.
Reduced MIP has 2515 rows, 2985 columns, and 7755 nonzeros.
Reduced MIP has 1195 binaries, 0 generals, 0 SOSs, and 0 indicators.
Presolve time = 0.00 sec. (4.53 ticks)
Probing fixed 0 vars, tightened 5487 bounds.
Probing time = 0.01 sec. (18.38 ticks)
Tried aggregator 2 times.
Detecting symmetries...
MIP Presolve modified 1206 coefficients.
Aggregator did 10 substitutions.
Reduced MIP has 2505 rows, 2975 columns, and 7735 nonzeros.
Reduced MIP has 1195 binaries, 0 generals, 0 SOSs, and 0 indicators.
Presolve time = 0.00 sec. (6.66 ticks)
Probing fixed 0 vars, tightened 2401 bounds.
Probing time = 0.00 sec. (6.41 ticks)
Clique table members: 190.
MIP emphasis: integer feasibility.
MIP search method: dynamic search.
Parallel mode: deterministic, using up to 8 threads.
Root relaxation solution time = 0.01 sec. (9.71 ticks)

        Nodes                                         Cuts/
   Node  Left     Objective  IInf  Best Integer    Best Bound    ItCnt     Gap

      0     0   348385.3466   472                 348385.3466      882         
      0     0   572313.5958   462                   Cuts: 726     1889         
      0     0   831822.5913   565                   Cuts: 726     2717         
      0     0   945966.5491   640                   Cuts: 726     3332         
*     0+    0                       1.01740e+07   945966.5491            90.70%
*     0+    0                      7973370.0000   945966.5491            88.14%
Detecting symmetries...
      0     2   945966.5508   640  7973370.0000   945966.5491     3332   88.14%
Elapsed time = 0.38 sec. (554.70 ticks, tree = 0.02 MB, solutions = 2)
     11    10   954177.8475   632  7973370.0000   951000.0609     3410   88.07%
     35    23  1082293.6164   714  7973370.0000   952241.8968     4154   88.06%
     58    48  1038697.4753   701  7973370.0000   952241.8968     9281   88.06%
     84    70  1056909.5247   705  7973370.0000   952241.8968    10301   88.06%
    114    96  1029523.1601   692  7973370.0000   952241.8968    10989   88.06%
    155   117  1092409.0506   688  7973370.0000   952241.8968    11417   88.06%
    199   167  1091914.5675   702  7973370.0000   952241.8968    12402   88.06%
    246   205  1056377.9397   698  7973370.0000   952241.8968    13319   88.06%
    291   246  1058048.6707   678  7973370.0000   952241.8968    14073   88.06%
    461   419  1105416.6713   660  7973370.0000   952241.8968    17554   88.06%
Elapsed time = 2.52 sec. (3685.05 ticks, tree = 0.69 MB, solutions = 2)
    613   551  1066599.7177   662  7973370.0000   952241.8968    20597   88.06%
    800   710  1109197.4070   647  7973370.0000   952241.8968    23647   88.06%
   1006   869  1230597.2847   623  7973370.0000   952241.8968    26346   88.06%
   1231  1161  1236167.7955   554  7973370.0000   952241.8968    30622   88.06%
   1467  1382  1260237.7356   544  7973370.0000   952241.8968    33901   88.06%
   1674  1556  1282513.6683   517  7973370.0000   952241.8968    36727   88.06%

Performing restart 1

Repeating presolve.
Tried aggregator 1 time.
MIP Presolve modified 1211 coefficients.
Reduced MIP has 2505 rows, 2975 columns, and 7735 nonzeros.
Reduced MIP has 1195 binaries, 0 generals, 0 SOSs, and 0 indicators.
Presolve time = 0.00 sec. (3.85 ticks)
Tried aggregator 1 time.
MIP Presolve modified 1026 coefficients.
Reduced MIP has 2505 rows, 2975 columns, and 7735 nonzeros.
Reduced MIP has 1195 binaries, 0 generals, 0 SOSs, and 0 indicators.
Presolve time = 0.00 sec. (5.12 ticks)
Represolve time = 0.02 sec. (18.39 ticks)

Cover cuts applied:  10
Implied bound cuts applied:  18
Flow cuts applied:  770
Mixed integer rounding cuts applied:  618
Multi commodity flow cuts applied:  17
Gomory fractional cuts applied:  17

Root node processing (before b&c):
  Real time             =    0.38 sec. (552.28 ticks)
Parallel b&c, 8 threads:
  Real time             =    6.26 sec. (9449.16 ticks)
  Sync time (average)   =    0.45 sec.
  Wait time (average)   =    0.00 sec.
                          ------------
Total (root+branch&cut) =    6.63 sec. (10001.44 ticks)
Gap: 87.29%
Upper bound: 7.97337e+06
Lower bound: 1.01362e+06
End of CPLEX run. Time: 6.63525 seconds
